50
426 111
170 477
425 354
675 143
696 183
646 534
19 593
229 2
291 70
384 332
719 268
588 453
34 586
456 466
207 573
301 291
366 373
577 84
793 90
217 68
631 375
559 312
748 203
129 302
33 216
41 483
424 489
424 430
27 20
362 520
199 202
466 124
8 416
218 199
178 383
564 453
605 139
654 310
110 201
577 28
450 410
290 409
29 234
170 15
113 195
310 121
669 440
227 67
551 130
327 299
